 200 41 
 30 18 74 39 69 38 74 55 29 85 32 32 
 23 44 36 69 46 80 78 93 37 42 80 65 
 83 80 94 36 7 21 80 77 51 12 24 41 
 91 98 99 36 45 
 35 
 1 2 4 5 6 7 8 9 10 12 13 14 
 17 18 19 21 22 23 24 25 26 27 28 29 
 30 31 32 33 34 35 36 38 39 40 41 
 11 
 2 3 6 7 11 15 16 17 20 29 30 
 11 
 2 4 5 8 9 12 23 24 29 34 36 
 35 
 2 3 4 5 6 7 8 9 10 12 13 14 
 15 16 17 18 19 20 21 22 23 24 25 26 
 27 28 31 33 34 36 37 38 39 40 41 
 2 
 21 40 
 26 
 1 3 4 5 6 7 8 12 13 15 17 19 
 22 23 25 28 29 32 34 35 36 37 38 39 
 40 41 
 35 
 1 2 4 5 6 7 8 9 10 11 12 14 
 16 17 18 19 20 22 24 25 26 27 28 29 
 30 32 33 34 35 36 37 38 39 40 41 
 29 
 1 2 3 4 5 7 9 10 12 13 14 15 
 18 19 21 23 24 25 27 28 29 30 32 33 
 34 37 38 40 41 
 2 
 10 24 
 12 
 3 4 5 7 16 18 21 22 26 30 32 37 
 14 
 2 4 10 14 21 26 27 28 31 33 34 36 
 37 39 
 23 
 1 2 4 5 6 7 9 18 20 21 23 24 
 26 27 28 31 32 33 35 36 37 40 41 
 37 
 1 2 4 5 6 7 8 9 10 11 12 13 
 14 15 16 17 18 19 22 23 24 25 26 27 
 28 29 30 31 32 33 35 36 37 38 39 40 
 41 
 3 
 7 13 20 
 9 
 8 12 15 27 28 31 33 39 40 
 25 
 1 2 3 4 6 7 11 12 15 16 17 20 
 21 23 24 25 27 28 29 30 31 32 33 37 
 38 
 38 
 1 2 3 4 6 8 9 10 11 13 14 15 
 16 17 18 19 20 21 22 23 24 25 26 27 
 28 29 30 31 32 33 34 35 36 37 38 39 
 40 41 
 14 
 4 6 14 16 19 21 22 25 27 30 35 38 
 39 41 
 12 
 1 2 3 6 8 10 13 23 24 30 36 40 
 8 
 7 12 19 26 29 34 36 39 
 22 
 2 3 4 5 6 10 11 14 16 17 18 19 
 21 23 25 29 31 35 36 37 38 39 
 8 
 5 8 11 23 26 28 29 30 
 20 
 1 2 6 7 9 10 11 12 15 16 20 23 
 24 27 28 29 31 37 38 40 
 18 
 2 4 5 11 12 14 17 19 22 25 28 30 
 32 35 36 37 40 41 
 29 
 1 2 3 4 6 7 8 9 10 12 13 14 
 15 16 18 19 25 26 27 28 29 30 31 33 
 34 35 37 38 41 
 41 
 1 2 3 4 5 6 7 8 9 10 11 12 
 13 14 15 16 17 18 19 20 21 22 23 24 
 25 26 27 28 29 30 31 32 33 34 35 36 
 37 38 39 40 41 
 16 
 3 8 9 12 13 14 15 18 19 21 24 28 
 29 31 38 39 
 20 
 1 2 3 8 9 11 13 15 17 18 22 26 
 28 30 33 35 37 39 40 41 
 2 
 25 29 
 20 
 1 2 4 5 9 12 14 16 17 18 22 24 
 25 28 31 32 34 35 36 37 
 11 
 4 10 12 18 21 26 28 33 35 38 40 
 25 
 1 3 5 6 7 8 9 10 12 14 15 20 
 21 22 24 25 26 27 31 33 35 36 38 39 
 40 
 26 
 1 2 3 4 5 8 10 11 12 13 14 15 
 16 19 20 25 26 27 31 32 34 35 36 37 
 40 41 
 25 
 1 2 3 4 6 7 8 12 13 14 17 20 
 21 23 24 26 29 30 31 32 33 35 37 39 
 40 
 20 
 1 2 3 5 6 10 12 14 18 19 20 21 
 23 24 25 26 31 32 34 35 
 15 
 1 2 5 8 9 12 14 15 18 22 24 27 
 28 35 41 
 15 
 3 4 7 8 9 16 19 23 24 25 26 33 
 35 38 41 
 6 
 7 16 19 28 35 41 
 5 
 7 9 11 20 29 
 22 
 1 3 7 8 10 11 13 15 16 18 19 20 
 22 27 30 31 32 34 36 38 40 41 
 28 
 1 2 3 4 5 6 8 10 11 12 13 14 
 15 17 20 21 22 23 24 27 28 31 34 35 
 37 38 39 41 
 38 
 1 2 3 5 6 7 8 9 10 11 12 13 
 14 15 16 17 18 19 20 21 22 23 24 25 
 26 27 28 29 30 32 33 34 35 36 37 38 
 39 40 
 19 
 1 3 8 9 10 11 13 17 18 23 24 29 
 30 34 36 37 39 40 41 
 7 
 2 6 14 21 32 35 41 
 6 
 2 13 24 39 40 41 
 12 
 3 6 11 16 19 20 22 30 33 35 36 38 
 4 
 3 12 35 39 
 26 
 1 2 3 4 5 9 10 11 12 14 15 16 
 17 20 22 23 25 26 27 30 31 33 37 38 
 39 40 
 13 
 2 3 4 7 8 11 21 24 26 32 37 40 
 41 
 6 
 7 11 24 27 28 30 
 11 
 8 9 10 16 20 22 28 29 30 35 39 
 13 
 1 5 12 16 21 22 24 26 27 28 31 33 
 36 
 14 
 7 11 14 15 16 18 21 22 23 25 27 33 
 38 39 
 20 
 1 3 6 7 9 11 12 16 17 18 19 21 
 22 24 27 28 30 38 39 40 
 29 
 1 2 3 6 7 9 10 11 12 13 14 15 
 16 17 19 20 22 26 28 29 30 33 34 35 
 36 37 38 40 41 
 24 
 1 2 4 10 11 13 14 15 18 20 21 22 
 23 24 26 28 33 34 35 36 37 38 39 40 
 38 
 1 2 3 4 5 6 7 8 9 10 11 12 
 13 14 15 16 17 18 19 20 21 22 23 24 
 26 27 28 29 30 32 33 34 35 36 38 39 
 40 41 
 23 
 1 2 3 8 10 11 16 20 21 22 23 24 
 25 26 27 28 31 32 34 36 37 39 41 
 3 
 14 28 34 
 15 
 1 2 9 12 14 18 25 30 31 32 33 37 
 38 40 41 
 26 
 1 3 4 5 10 11 12 13 14 15 17 18 
 20 21 23 25 29 30 31 32 33 34 35 38 
 40 41 
 13 
 1 7 10 13 15 16 20 21 24 30 36 40 
 41 
 3 
 3 18 28 
 35 
 1 2 4 5 7 8 10 11 12 13 14 16 
 17 18 19 21 22 23 24 25 26 27 28 29 
 30 31 32 33 34 35 36 37 38 40 41 
 24 
 1 2 4 5 8 9 10 14 16 17 18 20 
 21 24 25 26 27 29 30 35 36 37 38 41 
 35 
 1 2 3 5 6 7 8 9 10 11 12 13 
 15 16 17 18 19 20 21 22 23 25 26 27 
 28 29 30 31 33 34 35 36 37 39 40 
 11 
 1 9 12 16 20 25 32 33 36 40 41 
 35 
 1 2 4 5 6 7 9 10 11 13 14 15 
 16 17 18 19 21 22 23 24 25 26 27 29 
 30 31 32 34 35 36 37 38 39 40 41 
 29 
 1 2 4 6 7 8 9 10 12 14 16 17 
 18 20 21 22 24 25 26 28 30 31 34 35 
 36 38 39 40 41 
 4 
 10 13 33 40 
 3 
 8 12 27 
 22 
 3 5 6 7 11 12 14 15 16 17 20 21 
 22 24 27 28 32 33 34 35 40 41 
 26 
 7 8 9 10 11 13 15 16 18 19 20 21 
 22 23 24 26 27 30 31 33 36 37 38 39 
 40 41 
 6 
 4 6 12 15 19 20 
 33 
 1 2 3 4 7 8 9 10 12 13 14 15 
 17 18 19 20 21 23 24 25 27 28 30 31 
 32 33 34 35 36 37 38 39 40 
 8 
 1 9 14 17 18 19 22 34 
 19 
 1 3 4 11 15 19 20 21 22 25 26 29 
 31 34 35 36 37 39 40 
 13 
 3 6 8 10 11 12 16 18 20 23 32 37 
 41 
 38 
 1 2 3 4 5 6 8 9 10 11 12 14 
 15 16 17 18 19 20 21 22 23 24 25 26 
 27 28 29 30 31 32 33 34 35 37 38 39 
 40 41 
 32 
 1 3 4 5 8 9 11 12 13 14 15 16 
 17 18 19 20 21 23 24 25 27 28 29 30 
 31 32 33 34 35 37 39 40 
 32 
 1 2 3 5 7 8 9 10 11 12 13 15 
 16 17 18 19 21 22 24 25 27 28 29 32 
 34 35 36 37 38 39 40 41 
 8 
 4 8 15 16 20 29 33 36 
 4 
 5 27 35 37 
 40 
 1 2 3 4 5 6 7 8 9 10 11 12 
 13 14 15 16 17 18 19 20 21 22 23 24 
 25 26 27 28 29 30 31 32 33 34 35 36 
 37 38 40 41 
 21 
 3 5 6 8 9 14 17 23 26 27 30 31 
 32 33 34 35 36 37 38 39 41 
 27 
 1 2 3 6 10 12 13 14 16 17 21 23 
 24 25 26 27 28 30 31 32 33 34 35 36 
 39 40 41 
 21 
 3 5 6 7 8 9 10 12 13 14 15 16 
 19 21 26 27 29 31 34 38 41 
 32 
 1 2 3 4 6 7 8 9 13 14 15 16 
 18 19 20 21 22 24 26 27 28 29 30 31 
 33 34 35 36 37 38 40 41 
 31 
 1 3 4 5 6 7 8 9 10 11 12 13 
 14 15 16 18 19 21 24 25 26 28 29 31 
 32 33 34 35 36 37 40 
 10 
 6 8 9 16 24 25 26 34 36 38 
 23 
 2 3 5 7 8 9 11 12 13 14 15 20 
 21 22 23 26 27 28 30 31 32 34 36 
 24 
 2 3 4 8 9 12 14 16 17 19 21 25 
 26 27 30 31 32 33 34 35 36 37 38 40 
 7 
 3 19 23 24 32 39 40 
 13 
 5 10 11 15 19 21 28 29 30 36 38 39 
 41 
 11 
 5 12 16 17 24 27 29 30 34 36 41 
 8 
 1 9 11 14 18 22 34 37 
 33 
 1 2 4 5 6 7 8 9 10 11 12 13 
 14 15 16 17 18 21 23 24 25 26 27 28 
 29 31 32 33 34 35 36 37 41 
 15 
 2 3 5 8 10 11 12 15 17 23 26 29 
 35 37 38 
 41 
 1 2 3 4 5 6 7 8 9 10 11 12 
 13 14 15 16 17 18 19 20 21 22 23 24 
 25 26 27 28 29 30 31 32 33 34 35 36 
 37 38 39 40 41 
 17 
 2 7 13 16 17 18 19 23 26 29 30 31 
 33 36 38 39 41 
 4 
 10 25 26 36 
 18 
 2 6 7 8 13 14 16 18 21 22 26 27 
 28 31 32 35 39 40 
 41 
 1 2 3 4 5 6 7 8 9 10 11 12 
 13 14 15 16 17 18 19 20 21 22 23 24 
 25 26 27 28 29 30 31 32 33 34 35 36 
 37 38 39 40 41 
 12 
 2 3 6 9 10 14 16 17 20 25 33 34 
 18 
 1 3 4 5 7 9 13 14 15 19 20 21 
 22 23 30 31 32 36 
 22 
 2 3 5 7 8 11 12 15 16 17 18 19 
 22 23 25 28 32 33 34 36 39 40 
 11 
 1 12 13 22 23 24 25 33 36 37 41 
 22 
 1 2 3 4 6 7 12 13 15 17 19 23 
 24 25 26 27 29 30 36 38 39 40 
 40 
 1 2 3 4 5 6 7 8 10 11 12 13 
 14 15 16 17 18 19 20 21 22 23 24 25 
 26 27 28 29 30 31 32 33 34 35 36 37 
 38 39 40 41 
 15 
 3 7 8 10 11 12 13 14 19 30 32 33 
 34 36 41 
 7 
 6 7 14 24 33 38 40 
 39 
 1 2 3 4 5 6 7 8 9 10 11 12 
 13 14 15 16 17 18 19 21 23 24 25 26 
 27 28 29 30 31 32 33 34 35 36 37 38 
 39 40 41 
 2 
 7 8 
 33 
 1 2 3 4 6 7 8 9 10 12 14 15 
 16 18 19 20 21 22 23 26 27 28 30 31 
 32 33 34 36 37 38 39 40 41 
 13 
 6 7 12 15 18 25 27 28 29 32 34 36 
 37 
 25 
 3 4 5 6 7 8 12 14 17 18 21 22 
 23 24 25 29 30 31 32 34 35 36 37 40 
 41 
 8 
 5 7 13 14 22 32 35 37 
 21 
 1 4 5 6 9 13 15 16 19 20 21 22 
 25 26 28 29 30 33 36 39 41 
 14 
 2 3 4 5 9 13 15 21 25 28 35 39 
 40 41 
 41 
 1 2 3 4 5 6 7 8 9 10 11 12 
 13 14 15 16 17 18 19 20 21 22 23 24 
 25 26 27 28 29 30 31 32 33 34 35 36 
 37 38 39 40 41 
 19 
 1 2 5 12 14 18 19 23 24 26 27 30 
 33 34 35 36 37 38 41 
 16 
 1 3 6 7 10 11 13 14 19 23 24 30 
 31 34 36 38 
 16 
 2 3 6 7 9 12 19 22 24 28 31 32 
 34 36 39 40 
 14 
 3 4 5 6 10 16 20 23 26 32 34 36 
 39 40 
 15 
 5 7 9 10 13 14 15 16 17 25 27 28 
 31 34 40 
 4 
 9 14 17 30 
 30 
 1 3 4 5 6 7 10 11 12 14 15 16 
 17 18 19 20 21 23 24 25 27 31 33 34 
 35 36 37 39 40 41 
 34 
 2 3 4 5 6 7 8 9 10 11 12 14 
 16 18 19 20 21 22 23 24 25 26 27 28 
 29 30 32 33 34 36 38 39 40 41 
 17 
 1 5 8 9 10 11 12 18 22 24 25 27 
 30 32 35 36 40 
 34 
 1 2 3 4 5 6 7 8 9 11 14 15 
 16 17 21 22 23 24 25 26 27 28 30 31 
 32 33 34 35 36 37 38 39 40 41 
 36 
 1 2 3 4 6 7 8 9 10 11 12 13 
 14 15 16 17 18 19 20 21 22 24 25 26 
 27 28 30 32 33 34 35 36 38 39 40 41 
 25 
 1 2 4 6 7 8 10 11 13 14 15 16 
 21 23 24 25 26 27 28 30 31 33 37 38 
 39 
 37 
 1 2 3 5 6 7 8 9 10 11 12 13 
 14 15 16 17 18 19 20 21 23 24 25 26 
 28 29 30 32 33 34 35 36 37 38 39 40 
 41 
 11 
 9 10 11 12 19 20 21 25 27 29 30 
 14 
 3 5 6 9 11 18 22 23 28 29 30 31 
 33 39 
 15 
 2 3 6 14 15 16 18 19 20 23 27 29 
 32 40 41 
 34 
 1 2 3 4 6 7 8 9 10 11 13 14 
 16 17 18 19 20 21 22 23 26 27 28 29 
 30 31 32 33 34 35 36 39 40 41 
 22 
 1 4 5 6 7 11 12 14 15 16 18 20 
 21 27 29 30 31 32 34 35 36 37 
 3 
 2 29 40 
 31 
 1 3 4 5 6 8 9 10 11 12 13 16 
 17 19 20 21 22 23 24 25 26 27 28 29 
 30 31 32 36 37 38 39 
 16 
 4 7 11 12 14 15 16 19 21 23 24 25 
 26 30 31 35 
 2 
 33 34 
 41 
 1 2 3 4 5 6 7 8 9 10 11 12 
 13 14 15 16 17 18 19 20 21 22 23 24 
 25 26 27 28 29 30 31 32 33 34 35 36 
 37 38 39 40 41 
 30 
 1 2 3 4 5 6 7 9 10 11 12 16 
 18 20 21 22 23 24 25 26 28 29 31 33 
 34 37 38 39 40 41 
 28 
 1 2 4 5 7 8 9 10 11 12 13 14 
 16 17 19 20 23 26 28 29 30 31 34 35 
 36 38 40 41 
 15 
 2 6 9 11 15 16 20 21 22 23 25 28 
 33 38 40 
 22 
 1 5 8 9 10 11 14 17 18 20 23 24 
 25 26 28 32 34 36 37 38 39 41 
 12 
 1 5 6 15 16 22 30 32 34 35 36 41 
 30 
 1 2 3 5 8 9 10 11 12 14 15 16 
 17 18 19 20 21 22 24 27 28 29 30 31 
 33 34 35 36 37 41 
 34 
 1 2 3 4 5 6 7 10 11 12 13 14 
 15 16 17 18 19 20 21 22 23 25 26 27 
 29 30 33 34 35 36 37 38 40 41 
 13 
 4 5 7 9 13 17 20 23 25 29 37 38 
 39 
 33 
 1 2 3 4 5 6 8 9 10 11 12 13 
 14 15 16 17 18 21 22 23 24 25 27 29 
 30 31 34 35 36 37 38 39 41 
 35 
 1 2 3 6 7 8 9 10 11 12 13 14 
 15 16 18 19 20 22 23 24 25 26 27 28 
 29 31 32 33 34 35 37 38 39 40 41 
 3 
 5 6 22 
 10 
 6 8 11 13 20 23 24 31 34 38 
 13 
 11 12 13 19 20 22 23 25 26 29 31 38 
 40 
 12 
 3 5 10 12 13 21 28 29 31 33 37 41 
 19 
 5 8 11 14 17 18 19 21 22 25 26 27 
 28 30 31 33 39 40 41 
 7 
 3 5 13 26 28 37 40 
 31 
 1 2 3 5 7 8 9 11 15 16 17 18 
 19 20 21 22 24 25 27 28 29 30 31 32 
 33 35 36 38 39 40 41 
 11 
 1 4 6 12 22 27 28 29 30 36 41 
 14 
 3 7 9 12 16 20 21 22 29 30 34 35 
 40 41 
 29 
 1 2 3 4 5 6 7 8 9 10 11 12 
 17 19 21 22 24 25 26 27 28 29 30 34 
 35 36 37 40 41 
 27 
 1 2 3 5 6 7 9 12 13 14 15 18 
 21 22 23 25 26 27 28 31 32 33 34 36 
 38 39 40 
 14 
 2 4 7 8 9 11 12 13 21 25 30 31 
 34 40 
 7 
 3 5 8 11 17 27 34 
 22 
 2 5 7 9 11 12 15 18 22 23 25 27 
 28 32 33 34 35 36 37 38 39 41 
 10 
 1 7 8 10 12 21 23 24 31 41 
 9 
 3 6 9 16 20 22 23 27 32 
 25 
 2 3 5 6 8 13 15 16 17 19 20 21 
 23 24 25 27 29 30 31 32 33 35 37 38 
 41 
 9 
 6 7 8 11 15 19 26 32 40 
 2 
 8 26 
 21 
 1 3 4 5 7 13 14 15 16 17 19 20 
 21 22 24 35 36 37 38 39 40 
 2 
 8 32 
 3 
 1 17 41 
 16 
 1 7 10 17 18 21 23 25 30 31 32 33 
 34 37 39 41 
 4 
 11 18 22 29 
 19 
 3 5 6 9 11 13 16 17 18 21 22 23 
 26 29 34 36 37 39 41 
 32 
 1 2 3 5 7 8 9 10 11 13 14 15 
 16 18 19 20 21 23 25 26 27 28 30 31 
 33 34 35 36 37 38 39 40 
 11 
 5 10 11 20 27 28 29 32 33 34 38 
 33 
 1 2 3 4 5 6 7 8 9 11 13 14 
 16 17 20 21 23 24 25 26 27 28 30 31 
 33 34 35 36 37 38 39 40 41 
 23 
 1 3 4 5 7 8 9 10 11 19 20 24 
 25 27 28 29 31 33 34 37 39 40 41 
 26 
 1 2 3 5 8 11 13 14 15 18 20 21 
 22 23 25 26 28 29 30 31 32 33 34 36 
 39 41 
 30 
 2 3 4 5 6 7 8 9 11 14 15 16 
 17 18 19 20 21 22 27 28 29 30 31 32 
 33 35 37 38 39 41 
 41 
 1 2 3 4 5 6 7 8 9 10 11 12 
 13 14 15 16 17 18 19 20 21 22 23 24 
 25 26 27 28 29 30 31 32 33 34 35 36 
 37 38 39 40 41 
 14 
 2 3 6 10 17 22 25 27 28 29 30 32 
 38 41 
 23 
 1 2 5 6 10 12 13 14 15 16 17 18 
 20 24 25 26 27 28 29 31 32 36 40 
 14 
 2 5 8 13 14 16 18 20 22 24 30 32 
 33 34 
 40 
 1 2 3 4 5 7 8 9 10 11 12 13 
 14 15 16 17 18 19 20 21 22 23 24 25 
 26 27 28 29 30 31 32 33 34 35 36 37 
 38 39 40 41 
 36 
 1 3 4 5 6 7 8 9 10 11 14 15 
 16 17 18 19 20 22 23 24 25 26 28 29 
 30 31 32 33 34 35 36 37 38 39 40 41 
 7 
 6 10 12 20 26 30 31 
 25 
 2 6 7 8 9 10 11 13 19 21 23 24 
 25 26 27 28 29 30 31 32 36 37 38 40 
 41 
 13 
 1 2 4 12 13 14 15 17 19 20 28 33 
 40 
 24 
 1 2 3 4 5 6 8 9 12 15 16 17 
 19 21 23 26 29 30 31 33 34 35 40 41 
 41 
 1 2 3 4 5 6 7 8 9 10 11 12 
 13 14 15 16 17 18 19 20 21 22 23 24 
 25 26 27 28 29 30 31 32 33 34 35 36 
 37 38 39 40 41 
 4 
 4 9 29 32 
 2 
 5 10 
 25 
 1 2 3 5 7 9 10 11 12 15 16 17 
 23 24 25 26 29 32 33 34 35 36 37 38 
 41 
 38 
 1 2 4 5 6 7 8 9 10 11 12 13 
 14 15 16 17 18 19 20 21 23 24 25 26 
 27 29 30 31 32 33 34 35 36 37 38 39 
 40 41 
 31 
 1 2 4 5 7 8 10 12 14 15 16 17 
 19 21 22 23 24 25 26 27 28 29 31 32 
 33 34 35 36 37 39 41 
 